(set-logic QF_LRA)
(declare-fun T1 () Real )
(declare-fun T2 () Real )
(declare-fun T3 () Real )
(declare-fun T4 () Real )
(declare-fun T5 () Real )
(declare-fun T6 () Real )
(declare-fun Z () Real )
(assert ( and 
(or ( <= ( + T1 19 ) T2 ) ( <= ( + T2 29 ) T1 ) )
(or ( <= ( + T1 53 )  ( + T2 29 ) ) ( <= ( + T2 83 )( + T1 19 ) ) )
(or ( <= ( + T1 64 )  ( + T2 83 ) ) ( <= ( + T2 101 )( + T1 53 ) ) )
(or ( <= ( + T1 124 )  ( + T2 101 ) ) ( <= ( + T2 128 )( + T1 64 ) ) )
(or ( <= ( + T1 205 )  ( + T2 128 ) ) ( <= ( + T2 193 )( + T1 124 ) ) )
(or ( <= ( + T1 252 )  ( + T2 193 ) ) ( <= ( + T2 245 )( + T1 205 ) ) )
(or ( <= ( + T1 322 )  ( + T2 245 ) ) ( <= ( + T2 301 )( + T1 252 ) ) )
(or ( <= ( + T1 327 )  ( + T2 301 ) ) ( <= ( + T2 397 )( + T1 322 ) ) )
(or ( <= ( + T1 19 ) T3 ) ( <= ( + T3 72 ) T1 ) )
(or ( <= ( + T1 53 )  ( + T3 72 ) ) ( <= ( + T3 87 )( + T1 19 ) ) )
(or ( <= ( + T1 64 )  ( + T3 87 ) ) ( <= ( + T3 118 )( + T1 53 ) ) )
(or ( <= ( + T1 124 )  ( + T3 118 ) ) ( <= ( + T3 126 )( + T1 64 ) ) )
(or ( <= ( + T1 205 )  ( + T3 126 ) ) ( <= ( + T3 200 )( + T1 124 ) ) )
(or ( <= ( + T1 252 )  ( + T3 200 ) ) ( <= ( + T3 281 )( + T1 205 ) ) )
(or ( <= ( + T1 322 )  ( + T3 281 ) ) ( <= ( + T3 368 )( + T1 252 ) ) )
(or ( <= ( + T1 327 )  ( + T3 368 ) ) ( <= ( + T3 465 )( + T1 322 ) ) )
(or ( <= ( + T1 19 ) T4 ) ( <= ( + T4 42 ) T1 ) )
(or ( <= ( + T1 53 )  ( + T4 42 ) ) ( <= ( + T4 118 )( + T1 19 ) ) )
(or ( <= ( + T1 64 )  ( + T4 118 ) ) ( <= ( + T4 189 )( + T1 53 ) ) )
(or ( <= ( + T1 124 )  ( + T4 189 ) ) ( <= ( + T4 254 )( + T1 64 ) ) )
(or ( <= ( + T1 205 )  ( + T4 254 ) ) ( <= ( + T4 318 )( + T1 124 ) ) )
(or ( <= ( + T1 252 )  ( + T4 318 ) ) ( <= ( + T4 360 )( + T1 205 ) ) )
(or ( <= ( + T1 322 )  ( + T4 360 ) ) ( <= ( + T4 364 )( + T1 252 ) ) )
(or ( <= ( + T1 327 )  ( + T4 364 ) ) ( <= ( + T4 399 )( + T1 322 ) ) )
(or ( <= ( + T1 19 ) T5 ) ( <= ( + T5 27 ) T1 ) )
(or ( <= ( + T1 53 )  ( + T5 27 ) ) ( <= ( + T5 94 )( + T1 19 ) ) )
(or ( <= ( + T1 64 )  ( + T5 94 ) ) ( <= ( + T5 188 )( + T1 53 ) ) )
(or ( <= ( + T1 124 )  ( + T5 188 ) ) ( <= ( + T5 196 )( + T1 64 ) ) )
(or ( <= ( + T1 205 )  ( + T5 196 ) ) ( <= ( + T5 209 )( + T1 124 ) ) )
(or ( <= ( + T1 252 )  ( + T5 209 ) ) ( <= ( + T5 224 )( + T1 205 ) ) )
(or ( <= ( + T1 322 )  ( + T5 224 ) ) ( <= ( + T5 236 )( + T1 252 ) ) )
(or ( <= ( + T1 327 )  ( + T5 236 ) ) ( <= ( + T5 278 )( + T1 322 ) ) )
(or ( <= ( + T1 19 ) T6 ) ( <= ( + T6 68 ) T1 ) )
(or ( <= ( + T1 53 )  ( + T6 68 ) ) ( <= ( + T6 97 )( + T1 19 ) ) )
(or ( <= ( + T1 64 )  ( + T6 97 ) ) ( <= ( + T6 165 )( + T1 53 ) ) )
(or ( <= ( + T1 124 )  ( + T6 165 ) ) ( <= ( + T6 197 )( + T1 64 ) ) )
(or ( <= ( + T1 205 )  ( + T6 197 ) ) ( <= ( + T6 277 )( + T1 124 ) ) )
(or ( <= ( + T1 252 )  ( + T6 277 ) ) ( <= ( + T6 353 )( + T1 205 ) ) )
(or ( <= ( + T1 322 )  ( + T6 353 ) ) ( <= ( + T6 432 )( + T1 252 ) ) )
(or ( <= ( + T1 327 )  ( + T6 432 ) ) ( <= ( + T6 435 )( + T1 322 ) ) )
(or ( <= ( + T2 29 ) T3 ) ( <= ( + T3 72 ) T2 ) )
(or ( <= ( + T2 83 )  ( + T3 72 ) ) ( <= ( + T3 87 )( + T2 29 ) ) )
(or ( <= ( + T2 101 )  ( + T3 87 ) ) ( <= ( + T3 118 )( + T2 83 ) ) )
(or ( <= ( + T2 128 )  ( + T3 118 ) ) ( <= ( + T3 126 )( + T2 101 ) ) )
(or ( <= ( + T2 193 )  ( + T3 126 ) ) ( <= ( + T3 200 )( + T2 128 ) ) )
(or ( <= ( + T2 245 )  ( + T3 200 ) ) ( <= ( + T3 281 )( + T2 193 ) ) )
(or ( <= ( + T2 301 )  ( + T3 281 ) ) ( <= ( + T3 368 )( + T2 245 ) ) )
(or ( <= ( + T2 397 )  ( + T3 368 ) ) ( <= ( + T3 465 )( + T2 301 ) ) )
(or ( <= ( + T2 29 ) T4 ) ( <= ( + T4 42 ) T2 ) )
(or ( <= ( + T2 83 )  ( + T4 42 ) ) ( <= ( + T4 118 )( + T2 29 ) ) )
(or ( <= ( + T2 101 )  ( + T4 118 ) ) ( <= ( + T4 189 )( + T2 83 ) ) )
(or ( <= ( + T2 128 )  ( + T4 189 ) ) ( <= ( + T4 254 )( + T2 101 ) ) )
(or ( <= ( + T2 193 )  ( + T4 254 ) ) ( <= ( + T4 318 )( + T2 128 ) ) )
(or ( <= ( + T2 245 )  ( + T4 318 ) ) ( <= ( + T4 360 )( + T2 193 ) ) )
(or ( <= ( + T2 301 )  ( + T4 360 ) ) ( <= ( + T4 364 )( + T2 245 ) ) )
(or ( <= ( + T2 397 )  ( + T4 364 ) ) ( <= ( + T4 399 )( + T2 301 ) ) )
(or ( <= ( + T2 29 ) T5 ) ( <= ( + T5 27 ) T2 ) )
(or ( <= ( + T2 83 )  ( + T5 27 ) ) ( <= ( + T5 94 )( + T2 29 ) ) )
(or ( <= ( + T2 101 )  ( + T5 94 ) ) ( <= ( + T5 188 )( + T2 83 ) ) )
(or ( <= ( + T2 128 )  ( + T5 188 ) ) ( <= ( + T5 196 )( + T2 101 ) ) )
(or ( <= ( + T2 193 )  ( + T5 196 ) ) ( <= ( + T5 209 )( + T2 128 ) ) )
(or ( <= ( + T2 245 )  ( + T5 209 ) ) ( <= ( + T5 224 )( + T2 193 ) ) )
(or ( <= ( + T2 301 )  ( + T5 224 ) ) ( <= ( + T5 236 )( + T2 245 ) ) )
(or ( <= ( + T2 397 )  ( + T5 236 ) ) ( <= ( + T5 278 )( + T2 301 ) ) )
(or ( <= ( + T2 29 ) T6 ) ( <= ( + T6 68 ) T2 ) )
(or ( <= ( + T2 83 )  ( + T6 68 ) ) ( <= ( + T6 97 )( + T2 29 ) ) )
(or ( <= ( + T2 101 )  ( + T6 97 ) ) ( <= ( + T6 165 )( + T2 83 ) ) )
(or ( <= ( + T2 128 )  ( + T6 165 ) ) ( <= ( + T6 197 )( + T2 101 ) ) )
(or ( <= ( + T2 193 )  ( + T6 197 ) ) ( <= ( + T6 277 )( + T2 128 ) ) )
(or ( <= ( + T2 245 )  ( + T6 277 ) ) ( <= ( + T6 353 )( + T2 193 ) ) )
(or ( <= ( + T2 301 )  ( + T6 353 ) ) ( <= ( + T6 432 )( + T2 245 ) ) )
(or ( <= ( + T2 397 )  ( + T6 432 ) ) ( <= ( + T6 435 )( + T2 301 ) ) )
(or ( <= ( + T3 72 ) T4 ) ( <= ( + T4 42 ) T3 ) )
(or ( <= ( + T3 87 )  ( + T4 42 ) ) ( <= ( + T4 118 )( + T3 72 ) ) )
(or ( <= ( + T3 118 )  ( + T4 118 ) ) ( <= ( + T4 189 )( + T3 87 ) ) )
(or ( <= ( + T3 126 )  ( + T4 189 ) ) ( <= ( + T4 254 )( + T3 118 ) ) )
(or ( <= ( + T3 200 )  ( + T4 254 ) ) ( <= ( + T4 318 )( + T3 126 ) ) )
(or ( <= ( + T3 281 )  ( + T4 318 ) ) ( <= ( + T4 360 )( + T3 200 ) ) )
(or ( <= ( + T3 368 )  ( + T4 360 ) ) ( <= ( + T4 364 )( + T3 281 ) ) )
(or ( <= ( + T3 465 )  ( + T4 364 ) ) ( <= ( + T4 399 )( + T3 368 ) ) )
(or ( <= ( + T3 72 ) T5 ) ( <= ( + T5 27 ) T3 ) )
(or ( <= ( + T3 87 )  ( + T5 27 ) ) ( <= ( + T5 94 )( + T3 72 ) ) )
(or ( <= ( + T3 118 )  ( + T5 94 ) ) ( <= ( + T5 188 )( + T3 87 ) ) )
(or ( <= ( + T3 126 )  ( + T5 188 ) ) ( <= ( + T5 196 )( + T3 118 ) ) )
(or ( <= ( + T3 200 )  ( + T5 196 ) ) ( <= ( + T5 209 )( + T3 126 ) ) )
(or ( <= ( + T3 281 )  ( + T5 209 ) ) ( <= ( + T5 224 )( + T3 200 ) ) )
(or ( <= ( + T3 368 )  ( + T5 224 ) ) ( <= ( + T5 236 )( + T3 281 ) ) )
(or ( <= ( + T3 465 )  ( + T5 236 ) ) ( <= ( + T5 278 )( + T3 368 ) ) )
(or ( <= ( + T3 72 ) T6 ) ( <= ( + T6 68 ) T3 ) )
(or ( <= ( + T3 87 )  ( + T6 68 ) ) ( <= ( + T6 97 )( + T3 72 ) ) )
(or ( <= ( + T3 118 )  ( + T6 97 ) ) ( <= ( + T6 165 )( + T3 87 ) ) )
(or ( <= ( + T3 126 )  ( + T6 165 ) ) ( <= ( + T6 197 )( + T3 118 ) ) )
(or ( <= ( + T3 200 )  ( + T6 197 ) ) ( <= ( + T6 277 )( + T3 126 ) ) )
(or ( <= ( + T3 281 )  ( + T6 277 ) ) ( <= ( + T6 353 )( + T3 200 ) ) )
(or ( <= ( + T3 368 )  ( + T6 353 ) ) ( <= ( + T6 432 )( + T3 281 ) ) )
(or ( <= ( + T3 465 )  ( + T6 432 ) ) ( <= ( + T6 435 )( + T3 368 ) ) )
(or ( <= ( + T4 42 ) T5 ) ( <= ( + T5 27 ) T4 ) )
(or ( <= ( + T4 118 )  ( + T5 27 ) ) ( <= ( + T5 94 )( + T4 42 ) ) )
(or ( <= ( + T4 189 )  ( + T5 94 ) ) ( <= ( + T5 188 )( + T4 118 ) ) )
(or ( <= ( + T4 254 )  ( + T5 188 ) ) ( <= ( + T5 196 )( + T4 189 ) ) )
(or ( <= ( + T4 318 )  ( + T5 196 ) ) ( <= ( + T5 209 )( + T4 254 ) ) )
(or ( <= ( + T4 360 )  ( + T5 209 ) ) ( <= ( + T5 224 )( + T4 318 ) ) )
(or ( <= ( + T4 364 )  ( + T5 224 ) ) ( <= ( + T5 236 )( + T4 360 ) ) )
(or ( <= ( + T4 399 )  ( + T5 236 ) ) ( <= ( + T5 278 )( + T4 364 ) ) )
(or ( <= ( + T4 42 ) T6 ) ( <= ( + T6 68 ) T4 ) )
(or ( <= ( + T4 118 )  ( + T6 68 ) ) ( <= ( + T6 97 )( + T4 42 ) ) )
(or ( <= ( + T4 189 )  ( + T6 97 ) ) ( <= ( + T6 165 )( + T4 118 ) ) )
(or ( <= ( + T4 254 )  ( + T6 165 ) ) ( <= ( + T6 197 )( + T4 189 ) ) )
(or ( <= ( + T4 318 )  ( + T6 197 ) ) ( <= ( + T6 277 )( + T4 254 ) ) )
(or ( <= ( + T4 360 )  ( + T6 277 ) ) ( <= ( + T6 353 )( + T4 318 ) ) )
(or ( <= ( + T4 364 )  ( + T6 353 ) ) ( <= ( + T6 432 )( + T4 360 ) ) )
(or ( <= ( + T4 399 )  ( + T6 432 ) ) ( <= ( + T6 435 )( + T4 364 ) ) )
(or ( <= ( + T5 27 ) T6 ) ( <= ( + T6 68 ) T5 ) )
(or ( <= ( + T5 94 )  ( + T6 68 ) ) ( <= ( + T6 97 )( + T5 27 ) ) )
(or ( <= ( + T5 188 )  ( + T6 97 ) ) ( <= ( + T6 165 )( + T5 94 ) ) )
(or ( <= ( + T5 196 )  ( + T6 165 ) ) ( <= ( + T6 197 )( + T5 188 ) ) )
(or ( <= ( + T5 209 )  ( + T6 197 ) ) ( <= ( + T6 277 )( + T5 196 ) ) )
(or ( <= ( + T5 224 )  ( + T6 277 ) ) ( <= ( + T6 353 )( + T5 209 ) ) )
(or ( <= ( + T5 236 )  ( + T6 353 ) ) ( <= ( + T6 432 )( + T5 224 ) ) )
(or ( <= ( + T5 278 )  ( + T6 432 ) ) ( <= ( + T6 435 )( + T5 236 ) ) )
( <= ( + T1 327 ) Z)
( <= ( + T2 397 ) Z)
( <= ( + T3 465 ) Z)
( <= ( + T4 399 ) Z)
( <= ( + T5 278 ) Z)
( <= ( + T6 435 ) Z)
( >= T1 0 )
( >= T2 0 )
( >= T3 0 )
( >= T4 0 )
( >= T5 0 )
( >= T6 0 )
) )
(minimize Z)
(check-sat)